flay03h.py
Ipopt 3.12.8: 
==> Warning: Treating 12 binary and 0 integer variables as continous.


******************************************************************************
This program contains Ipopt, a library for large-scale nonlinear optimization.
 Ipopt is released as open source code under the Eclipse Public License (EPL).
         For more information visit http://projects.coin-or.org/Ipopt
******************************************************************************

This is Ipopt version 3.12.8, running with linear solver ma27.

Number of nonzeros in equality constraint Jacobian...:      132
Number of nonzeros in inequality constraint Jacobian.:      252
Number of nonzeros in Lagrangian Hessian.............:        3

Total number of variables............................:      122
                     variables with only lower bounds:       96
                variables with lower and upper bounds:       26
                     variables with only upper bounds:        0
Total number of equality constraints.................:       27
Total number of inequality constraints...............:      117
        inequality constraints with only lower bounds:        6
   inequality constraints with lower and upper bounds:        0
        inequality constraints with only upper bounds:      111

iter    objective    inf_pr   inf_du lg(mu)  ||d||  lg(rg) alpha_du alpha_pr  ls
   0  3.9999960e-02 5.84e+01 9.84e-01  -1.0 0.00e+00    -  0.00e+00 0.00e+00   0
   1  1.6256473e-01 5.71e+01 2.60e+00  -1.0 1.18e+01    -  6.04e-03 2.19e-02f  1
   2  8.5496548e+00 2.82e+01 2.63e+01  -1.0 1.16e+01    -  2.35e-02 1.00e+00f  1
   3  1.4284901e+01 1.37e+01 1.94e+00  -1.0 2.34e+00    -  4.23e-01 1.00e+00h  1
   4  2.4826647e+01 5.65e+00 1.07e+00  -1.0 3.49e+00    -  2.08e-01 9.94e-01h  1
   5  3.4888690e+01 2.61e-01 6.43e-01  -1.0 3.88e+00    -  4.50e-01 1.00e+00h  1
   6  3.6152837e+01 9.99e-16 1.23e-01  -1.0 1.03e+00    -  9.82e-01 1.00e+00f  1
   7  3.1678656e+01 4.42e-02 4.68e-02  -1.7 1.72e+00    -  1.00e+00 9.64e-01f  1
   8  3.1053657e+01 9.91e-03 1.43e-01  -2.5 2.32e-01    -  1.00e+00 7.46e-01f  1
   9  3.1081849e+01 1.17e-15 4.31e-04  -2.5 8.50e-02    -  1.00e+00 1.00e+00h  1
iter    objective    inf_pr   inf_du lg(mu)  ||d||  lg(rg) alpha_du alpha_pr  ls
  10  3.0985742e+01 4.44e-16 2.77e-05  -3.8 2.61e-02    -  1.00e+00 1.00e+00f  1
  11  3.0983923e+01 1.33e-15 1.89e-07  -5.7 5.69e-04    -  1.00e+00 1.00e+00f  1
  12  3.0983867e+01 8.88e-16 1.21e-06  -8.6 4.17e-05    -  1.00e+00 9.98e-01h  1
  13  3.0983867e+01 8.88e-16 1.48e-02  -8.6 3.27e-02    -  9.92e-01 1.00e+00f  1
  14  3.0983867e+01 1.78e-15 5.78e-01  -8.6 1.53e-03    -  1.00e+00 3.54e-08h  9
  15  3.0983867e+01 1.33e-15 2.51e-14  -8.6 7.55e-04    -  1.00e+00 1.00e+00h  1

Number of Iterations....: 15

                                   (scaled)                 (unscaled)
Objective...............:   3.0983866692058843e+01    3.0983866692058843e+01
Dual infeasibility......:   2.5091040356528538e-14    2.5091040356528538e-14
Constraint violation....:   1.3322676295501878e-15    1.3322676295501878e-15
Complementarity.........:   4.7697974107096925e-09    4.7697974107096925e-09
Overall NLP error.......:   4.7697974107096925e-09    4.7697974107096925e-09


Number of objective function evaluations             = 24
Number of objective gradient evaluations             = 16
Number of equality constraint evaluations            = 24
Number of inequality constraint evaluations          = 24
Number of equality constraint Jacobian evaluations   = 16
Number of inequality constraint Jacobian evaluations = 16
Number of Lagrangian Hessian evaluations             = 15
Total CPU secs in IPOPT (w/o function evaluations)   =      0.012
Total CPU secs in NLP function evaluations           =      0.000

EXIT: Optimal Solution Found.

Time elapsed: 0.131402015686